unknown
(model
; cardinality of BoundSet is 1
(declare-sort BoundSet 0)
; rep: @uc_BoundSet_0
; cardinality of UnboundSet is 1
(declare-sort UnboundSet 0)
(declare-fun groundTerm_2 () UnboundSet)
(define-fun IsSmallChild ((BOUND_VARIABLE_425 BoundSet)) Bool true)
(define-fun IsInRedJacket ((BOUND_VARIABLE_425 BoundSet)) Bool true)
(define-fun IsSittingOnManShoulders ((BOUND_VARIABLE_425 BoundSet)) Bool true)
(define-fun IsHoldingHead ((BOUND_VARIABLE_425 BoundSet)) Bool true)
(define-fun IsOn ((BOUND_VARIABLE_437 BoundSet) (BOUND_VARIABLE_438 BoundSet)) Bool false)
)
sat
(model
; cardinality of BoundSet is 1
(declare-sort BoundSet 0)
; rep: @uc_BoundSet_0
; cardinality of UnboundSet is 1
(declare-sort UnboundSet 0)
(declare-fun groundTerm_4 () UnboundSet)
(define-fun IsSmallChild ((BOUND_VARIABLE_457 BoundSet)) Bool true)
(define-fun IsInRedJacket ((BOUND_VARIABLE_457 BoundSet)) Bool true)
(define-fun IsSittingOnManShoulders ((BOUND_VARIABLE_457 BoundSet)) Bool true)
(define-fun IsHoldingHead ((BOUND_VARIABLE_457 BoundSet)) Bool true)
(define-fun IsOn ((BOUND_VARIABLE_465 BoundSet) (BOUND_VARIABLE_466 BoundSet)) Bool false)
)
